c nIsolatedPIs 0
c maxPI 32
p cnf 179 442
c gate 33 -11 -27 0
-11 -33 0
-27 -33 0
11 27 33 0
c gate 34 11 27 0
11 -34 0
27 -34 0
-11 -27 34 0
c gate 35 -33 -34 0
-33 -35 0
-34 -35 0
33 34 35 0
c gate 36 10 -26 0
10 -36 0
-26 -36 0
-10 26 36 0
c gate 37 8 -24 0
8 -37 0
-24 -37 0
-8 24 37 0
c gate 38 9 25 0
9 -38 0
25 -38 0
-9 -25 38 0
c gate 39 -9 -25 0
-9 -39 0
-25 -39 0
9 25 39 0
c gate 40 -38 -39 0
-38 -40 0
-39 -40 0
38 39 40 0
c gate 41 -37 -40 0
-37 -41 0
-40 -41 0
37 40 41 0
c gate 42 -10 26 0
-10 -42 0
26 -42 0
10 -26 42 0
c gate 43 -9 25 0
-9 -43 0
25 -43 0
9 -25 43 0
c gate 44 -42 -43 0
-42 -44 0
-43 -44 0
42 43 44 0
c gate 45 -41 44 0
-41 -45 0
44 -45 0
41 -44 45 0
c gate 46 -36 -45 0
-36 -46 0
-45 -46 0
36 45 46 0
c gate 47 -7 23 0
-7 -47 0
23 -47 0
7 -23 47 0
c gate 48 6 -22 0
6 -48 0
-22 -48 0
-6 22 48 0
c gate 49 7 -23 0
7 -49 0
-23 -49 0
-7 23 49 0
c gate 50 -48 -49 0
-48 -50 0
-49 -50 0
48 49 50 0
c gate 51 -2 18 0
-2 -51 0
18 -51 0
2 -18 51 0
c gate 52 -1 17 0
-1 -52 0
17 -52 0
1 -17 52 0
c gate 53 -51 -52 0
-51 -53 0
-52 -53 0
51 52 53 0
c gate 54 2 -18 0
2 -54 0
-18 -54 0
-2 18 54 0
c gate 55 3 -19 0
3 -55 0
-19 -55 0
-3 19 55 0
c gate 56 -54 -55 0
-54 -56 0
-55 -56 0
54 55 56 0
c gate 57 -53 56 0
-53 -57 0
56 -57 0
53 -56 57 0
c gate 58 -4 20 0
-4 -58 0
20 -58 0
4 -20 58 0
c gate 59 -3 19 0
-3 -59 0
19 -59 0
3 -19 59 0
c gate 60 -58 -59 0
-58 -60 0
-59 -60 0
58 59 60 0
c gate 61 -57 60 0
-57 -61 0
60 -61 0
57 -60 61 0
c gate 62 5 -21 0
5 -62 0
-21 -62 0
-5 21 62 0
c gate 63 4 -20 0
4 -63 0
-20 -63 0
-4 20 63 0
c gate 64 -62 -63 0
-62 -64 0
-63 -64 0
62 63 64 0
c gate 65 -61 64 0
-61 -65 0
64 -65 0
61 -64 65 0
c gate 66 -6 22 0
-6 -66 0
22 -66 0
6 -22 66 0
c gate 67 -48 -66 0
-48 -67 0
-66 -67 0
48 66 67 0
c gate 68 -5 21 0
-5 -68 0
21 -68 0
5 -21 68 0
c gate 69 67 -68 0
67 -69 0
-68 -69 0
-67 68 69 0
c gate 70 -65 69 0
-65 -70 0
69 -70 0
65 -69 70 0
c gate 71 50 -70 0
50 -71 0
-70 -71 0
-50 70 71 0
c gate 72 -47 -71 0
-47 -72 0
-71 -72 0
47 71 72 0
c gate 73 8 24 0
8 -73 0
24 -73 0
-8 -24 73 0
c gate 74 -8 -24 0
-8 -74 0
-24 -74 0
8 24 74 0
c gate 75 -73 -74 0
-73 -75 0
-74 -75 0
73 74 75 0
c gate 76 72 -75 0
72 -76 0
-75 -76 0
-72 75 76 0
c gate 77 44 76 0
44 -77 0
76 -77 0
-44 -76 77 0
c gate 78 46 -77 0
46 -78 0
-77 -78 0
-46 77 78 0
c gate 79 -35 78 0
-35 -79 0
78 -79 0
35 -78 79 0
c gate 80 35 -78 0
35 -80 0
-78 -80 0
-35 78 80 0
c gate 81 -79 -80 0
-79 -81 0
-80 -81 0
79 80 81 0
c gate 82 46 -81 0
46 -82 0
-81 -82 0
-46 81 82 0
c gate 83 -47 -49 0
-47 -83 0
-49 -83 0
47 49 83 0
c gate 84 70 -83 0
70 -84 0
-83 -84 0
-70 83 84 0
c gate 85 2 18 0
2 -85 0
18 -85 0
-2 -18 85 0
c gate 86 1 17 0
1 -86 0
17 -86 0
-1 -17 86 0
c gate 87 -85 -86 0
-85 -87 0
-86 -87 0
85 86 87 0
c gate 88 -2 -18 0
-2 -88 0
-18 -88 0
2 18 88 0
c gate 89 -3 -19 0
-3 -89 0
-19 -89 0
3 19 89 0
c gate 90 -88 -89 0
-88 -90 0
-89 -90 0
88 89 90 0
c gate 91 -87 90 0
-87 -91 0
90 -91 0
87 -90 91 0
c gate 92 4 20 0
4 -92 0
20 -92 0
-4 -20 92 0
c gate 93 3 19 0
3 -93 0
19 -93 0
-3 -19 93 0
c gate 94 -92 -93 0
-92 -94 0
-93 -94 0
92 93 94 0
c gate 95 -91 94 0
-91 -95 0
94 -95 0
91 -94 95 0
c gate 96 -5 -21 0
-5 -96 0
-21 -96 0
5 21 96 0
c gate 97 -4 -20 0
-4 -97 0
-20 -97 0
4 20 97 0
c gate 98 -96 -97 0
-96 -98 0
-97 -98 0
96 97 98 0
c gate 99 -95 98 0
-95 -99 0
98 -99 0
95 -98 99 0
c gate 100 5 21 0
5 -100 0
21 -100 0
-5 -21 100 0
c gate 101 -67 -100 0
-67 -101 0
-100 -101 0
67 100 101 0
c gate 102 -99 101 0
-99 -102 0
101 -102 0
99 -101 102 0
c gate 103 -6 -22 0
-6 -103 0
-22 -103 0
6 22 103 0
c gate 104 -102 -103 0
-102 -104 0
-103 -104 0
102 103 104 0
c gate 105 -83 -104 0
-83 -105 0
-104 -105 0
83 104 105 0
c gate 106 75 105 0
75 -106 0
105 -106 0
-75 -105 106 0
c gate 107 -7 -23 0
-7 -107 0
-23 -107 0
7 23 107 0
c gate 108 -73 107 0
-73 -108 0
107 -108 0
73 -107 108 0
c gate 109 -39 -74 0
-39 -109 0
-74 -109 0
39 74 109 0
c gate 110 -108 109 0
-108 -110 0
109 -110 0
108 -109 110 0
c gate 111 10 26 0
10 -111 0
26 -111 0
-10 -26 111 0
c gate 112 -38 -111 0
-38 -112 0
-111 -112 0
38 111 112 0
c gate 113 -110 112 0
-110 -113 0
112 -113 0
110 -112 113 0
c gate 114 -10 -26 0
-10 -114 0
-26 -114 0
10 26 114 0
c gate 115 -33 -114 0
-33 -115 0
-114 -115 0
33 114 115 0
c gate 116 -113 115 0
-113 -116 0
115 -116 0
113 -115 116 0
c gate 117 -34 -116 0
-34 -117 0
-116 -117 0
34 116 117 0
c gate 118 -12 -28 0
-12 -118 0
-28 -118 0
12 28 118 0
c gate 119 12 28 0
12 -119 0
28 -119 0
-12 -28 119 0
c gate 120 -118 -119 0
-118 -120 0
-119 -120 0
118 119 120 0
c gate 121 -106 110 0
-106 -121 0
110 -121 0
106 -110 121 0
c gate 122 -38 -121 0
-38 -122 0
-121 -122 0
38 121 122 0
c gate 123 -114 -122 0
-114 -123 0
-122 -123 0
114 122 123 0
c gate 124 -34 -111 0
-34 -124 0
-111 -124 0
34 111 124 0
c gate 125 -123 124 0
-123 -125 0
124 -125 0
123 -124 125 0
c gate 126 -33 -125 0
-33 -126 0
-125 -126 0
33 125 126 0
c gate 127 -120 126 0
-120 -127 0
126 -127 0
120 -126 127 0
c gate 128 117 -127 0
117 -128 0
-127 -128 0
-117 127 128 0
c gate 129 120 -126 0
120 -129 0
-126 -129 0
-120 126 129 0
c gate 130 -117 -129 0
-117 -130 0
-129 -130 0
117 129 130 0
c gate 131 -128 -130 0
-128 -131 0
-130 -131 0
128 130 131 0
c gate 132 106 131 0
106 -132 0
131 -132 0
-106 -131 132 0
c gate 133 120 126 0
120 -133 0
126 -133 0
-120 -126 133 0
c gate 134 -14 -30 0
-14 -134 0
-30 -134 0
14 30 134 0
c gate 135 14 30 0
14 -135 0
30 -135 0
-14 -30 135 0
c gate 136 -134 -135 0
-134 -136 0
-135 -136 0
134 135 136 0
c gate 137 -118 136 0
-118 -137 0
136 -137 0
118 -136 137 0
c gate 138 13 -29 0
13 -138 0
-29 -138 0
-13 29 138 0
c gate 139 -13 29 0
-13 -139 0
29 -139 0
13 -29 139 0
c gate 140 -138 -139 0
-138 -140 0
-139 -140 0
138 139 140 0
c gate 141 -16 -32 0
-16 -141 0
-32 -141 0
16 32 141 0
c gate 142 16 32 0
16 -142 0
32 -142 0
-16 -32 142 0
c gate 143 -141 -142 0
-141 -143 0
-142 -143 0
141 142 143 0
c gate 144 -15 -31 0
-15 -144 0
-31 -144 0
15 31 144 0
c gate 145 15 31 0
15 -145 0
31 -145 0
-15 -31 145 0
c gate 146 -144 -145 0
-144 -146 0
-145 -146 0
144 145 146 0
c gate 147 143 146 0
143 -147 0
146 -147 0
-143 -146 147 0
c gate 148 -140 147 0
-140 -148 0
147 -148 0
140 -147 148 0
c gate 149 137 148 0
137 -149 0
148 -149 0
-137 -148 149 0
c gate 150 133 -149 0
133 -150 0
-149 -150 0
-133 149 150 0
c gate 151 -132 -150 0
-132 -151 0
-150 -151 0
132 150 151 0
c gate 152 -119 149 0
-119 -152 0
149 -152 0
119 -149 152 0
c gate 153 126 152 0
126 -153 0
152 -153 0
-126 -152 153 0
c gate 154 -70 -153 0
-70 -154 0
-153 -154 0
70 153 154 0
c gate 155 -151 154 0
-151 -155 0
154 -155 0
151 -154 155 0
c gate 156 -84 -155 0
-84 -156 0
-155 -156 0
84 155 156 0
c gate 157 -76 -156 0
-76 -157 0
-156 -157 0
76 156 157 0
c gate 158 50 75 0
50 -158 0
75 -158 0
-50 -75 158 0
c gate 159 72 158 0
72 -159 0
158 -159 0
-72 -158 159 0
c gate 160 -76 -159 0
-76 -160 0
-159 -160 0
76 159 160 0
c gate 161 -111 -114 0
-111 -161 0
-114 -161 0
111 114 161 0
c gate 162 -40 -161 0
-40 -162 0
-161 -162 0
40 161 162 0
c gate 163 -159 162 0
-159 -163 0
162 -163 0
159 -162 163 0
c gate 164 -160 -163 0
-160 -164 0
-163 -164 0
160 163 164 0
c gate 165 -157 -164 0
-157 -165 0
-164 -165 0
157 164 165 0
c gate 166 -82 165 0
-82 -166 0
165 -166 0
82 -165 166 0
c gate 167 -79 -166 0
-79 -167 0
-166 -167 0
79 166 167 0
c gate 168 -120 -136 0
-120 -168 0
-136 -168 0
120 136 168 0
c gate 169 -143 -146 0
-143 -169 0
-146 -169 0
143 146 169 0
c gate 170 140 169 0
140 -170 0
169 -170 0
-140 -169 170 0
c gate 171 168 170 0
168 -171 0
170 -171 0
-168 -170 171 0
c gate 172 79 171 0
79 -172 0
171 -172 0
-79 -171 172 0
c gate 173 -167 -172 0
-167 -173 0
-172 -173 0
167 172 173 0
c gate 174 -102 -105 0
-102 -174 0
-105 -174 0
102 105 174 0
c gate 175 -173 -174 0
-173 -175 0
-174 -175 0
173 174 175 0
c gate 176 -131 -133 0
-131 -176 0
-133 -176 0
131 133 176 0
c gate 177 175 176 0
175 -177 0
176 -177 0
-175 -176 177 0
c gate 178 173 -176 0
173 -178 0
-176 -178 0
-173 176 178 0
c gate 179 -177 -178 0
-177 -179 0
-178 -179 0
177 178 179 0
c PO
-179 0
